Sun 20 May 09:37:51 CEST 2018
CPXPARAM_TimeLimit                               45
CPXPARAM_Threads                                 4
CPXPARAM_MIP_Strategy_CallbackReducedLP          0
Tried aggregator 2 times.
MIP Presolve eliminated 2736 rows and 1528 columns.
MIP Presolve modified 288 coefficients.
Aggregator did 412 substitutions.
Reduced MIP has 1006 rows, 1161 columns, and 3924 nonzeros.
Reduced MIP has 1156 binaries, 5 generals, 0 SOSs, and 292 indicators.
Presolve time = 0.01 sec. (8.95 ticks)
Found incumbent of value 10.000000 after 0.02 sec. (19.17 ticks)
Probing time = 0.02 sec. (16.07 ticks)
Cover probing fixed 0 vars, tightened 5 bounds.
Tried aggregator 3 times.
MIP Presolve modified 132 coefficients.
Aggregator did 606 substitutions.
Reduced MIP has 434 rows, 555 columns, and 2936 nonzeros.
Reduced MIP has 550 binaries, 5 generals, 0 SOSs, and 258 indicators.
Presolve time = 0.00 sec. (6.32 ticks)
Probing time = 0.01 sec. (5.84 ticks)
Tried aggregator 2 times.
Aggregator did 34 substitutions.
Reduced MIP has 410 rows, 521 columns, and 2888 nonzeros.
Reduced MIP has 516 binaries, 5 generals, 0 SOSs, and 248 indicators.
Presolve time = 0.00 sec. (4.06 ticks)

Root node processing (before b&c):
  Real time             =    0.07 sec. (56.47 ticks)
Parallel b&c, 4 threads:
  Real time             =    0.00 sec. (0.00 ticks)
  Sync time (average)   =    0.00 sec.
  Wait time (average)   =    0.00 sec.
                          ------------
Total (root+branch&cut) =    0.07 sec. (56.47 ticks)
   | W
 L | 0 1 2 3 4 5 6 7 8 9 
-------------------------
 0 | 1 2 2 2 3 3 3 4 4 4 
 1 | . 2 2 2 3 3 3 4 4 4 
 2 | . 2 2 2 3 3 3 4 4 4 
 3 | . . . . . . . . . . 
 4 | . . . . . . . . . . 
 5 | . . . . . . . . . . 
 6 | . . . . . . . . . . 
 7 | . . . . . . . . . . 
 8 | . . . . . . . . . . 
 9 | . . . . . . . . . . 

Boxes' corners:      (w,l)
    Box 1 is at 
        top left     (0,0)
        bottom right (0,0)

    Box 2 is at 
        top left     (1,0)
        bottom right (3,2)

    Box 3 is at 
        top left     (4,0)
        bottom right (6,2)

    Box 4 is at 
        top left     (7,0)
        bottom right (9,2)

    Roll length used: 3
In 0.08 seconds
